Maximize
F 

Subject to
F - 12.0y79 - 3.0y230 - 12.0y109 - 9.0y206 - 12.0y233 - 3.0y59 - 3.0y133 - 6.0y240 - 12.0y130 - 12.0y238 - 9.0y11 - 6.0y94 - 12.0y222 - 9.0y191 - 9.0y194 - 9.0y84 - 6.0y104 - 12.0y110 - 6.0y44 - 9.0y76 - 6.0y103 - 6.0y273 - 6.0y196 - 12.0y227 - 6.0y236 - 9.0y111 - 12.0y40 - 6.0y173 - 12.0y93 - 6.0y86 = 0

x231x227x1 + x231x236x1 + x231x111x1 + x231x40x1 + x231x93x1 + x231x86x1 
<= 1
x231x236x2 
<= 1
x146x104x2 + x146x103x2 + x146x236x2 
<= 2
x115x79x2 + x115x59x2 + x115x11x2 + x115x94x2 + x115x222x2 + x115x191x2 + x115x104x2 + x115x103x2 + x115x236x2 
<= 2
x105x230x3 + x105x109x3 + x105x206x3 + x105x233x3 + x105x59x3 + x105x240x3 + x105x238x3 + x105x11x3 + x105x194x3 + x105x110x3 + x105x44x3 + x105x76x3 + x105x196x3 + x105x227x3 + x105x111x3 + x105x40x3 + x105x173x3 + x105x93x3 
<= 1
x138x240x3 + x138x238x3 + x138x194x3 + x138x110x3 + x138x44x3 + x138x76x3 + x138x196x3 + x138x227x3 + x138x111x3 + x138x40x3 + x138x173x3 + x138x93x3 
<= 2


- x79x191x1 - x79x84x1 - x79x110x1 - x79x273x1 - x79x227x1 - x79x236x1 - x79x111x1 - x79x40x1 - x79x93x1 - x79x86x1 
= 0
x115x79x2 
- x79x0x2
- x79x59x2 - x79x11x2 - x79x191x2 - x79x104x2 - x79x103x2 - x79x236x2 
= 0




x105x230x3 
- x230x0x3
- x230x240x3 - x230x238x3 - x230x111x3 - x230x40x3 
= 0


- x109x191x1 - x109x110x1 - x109x273x1 - x109x227x1 - x109x236x1 - x109x111x1 - x109x40x1 - x109x93x1 - x109x86x1 
= 0

x105x109x3 
- x109x0x3
- x109x233x3 - x109x59x3 - x109x11x3 - x109x194x3 - x109x110x3 - x109x44x3 - x109x76x3 - x109x196x3 - x109x227x3 - x109x111x3 - x109x40x3 - x109x173x3 - x109x93x3 
= 0


- x206x191x1 - x206x84x1 - x206x110x1 - x206x273x1 - x206x227x1 - x206x236x1 - x206x111x1 - x206x40x1 - x206x93x1 - x206x86x1 
= 0

x105x206x3 
- x206x0x3
- x206x194x3 - x206x110x3 - x206x44x3 - x206x76x3 - x206x196x3 - x206x227x3 - x206x111x3 - x206x40x3 - x206x173x3 - x206x93x3 
= 0



x105x233x3 + x109x233x3 
- x233x0x3
- x233x11x3 - x233x194x3 - x233x44x3 - x233x76x3 - x233x196x3 - x233x227x3 - x233x111x3 - x233x40x3 - x233x173x3 - x233x93x3 
= 0


x115x59x2 + x79x59x2 
- x59x0x2
- x59x11x2 - x59x191x2 - x59x104x2 - x59x103x2 - x59x236x2 
= 0
x105x59x3 + x109x59x3 
- x59x0x3
- x59x11x3 - x59x194x3 - x59x44x3 - x59x76x3 - x59x196x3 - x59x227x3 - x59x111x3 - x59x40x3 - x59x173x3 - x59x93x3 
= 0


- x133x94x1 - x133x222x1 
= 0




- x240x238x1 - x240x94x1 - x240x222x1 
= 0

x105x240x3 + x138x240x3 + x230x240x3 
- x240x0x3
- x240x238x3 
= 0


- x130x238x1 - x130x94x1 - x130x222x1 
= 0



x240x238x1 + x130x238x1 
- x238x0x1
- x238x94x1 - x238x222x1 
= 0

x105x238x3 + x138x238x3 + x230x238x3 + x240x238x3 
- x238x0x3

= 0


x115x11x2 + x79x11x2 + x59x11x2 
- x11x0x2
- x11x104x2 - x11x236x2 
= 0
x105x11x3 + x109x11x3 + x233x11x3 + x59x11x3 
- x11x0x3
- x11x76x3 - x11x196x3 - x11x227x3 - x11x111x3 - x11x40x3 - x11x173x3 - x11x93x3 
= 0

x133x94x1 + x240x94x1 + x130x94x1 + x238x94x1 
- x94x0x1

= 0
x115x94x2 
- x94x0x2

= 0


x133x222x1 + x240x222x1 + x130x222x1 + x238x222x1 
- x222x0x1

= 0
x115x222x2 
- x222x0x2

= 0


x79x191x1 + x109x191x1 + x206x191x1 
- x191x0x1
- x191x273x1 - x191x227x1 - x191x236x1 - x191x111x1 - x191x40x1 - x191x93x1 - x191x86x1 
= 0
x115x191x2 + x79x191x2 + x59x191x2 
- x191x0x2
- x191x104x2 - x191x236x2 
= 0




x105x194x3 + x138x194x3 + x109x194x3 + x206x194x3 + x233x194x3 + x59x194x3 
- x194x0x3
- x194x76x3 - x194x196x3 - x194x227x3 - x194x111x3 - x194x40x3 - x194x173x3 - x194x93x3 
= 0

x79x84x1 + x206x84x1 
- x84x0x1
- x84x110x1 - x84x273x1 - x84x227x1 - x84x236x1 - x84x111x1 - x84x40x1 - x84x93x1 - x84x86x1 
= 0




x146x104x2 + x115x104x2 + x79x104x2 + x59x104x2 + x11x104x2 + x191x104x2 
- x104x0x2

= 0


x79x110x1 + x109x110x1 + x206x110x1 + x84x110x1 
- x110x0x1
- x110x236x1 - x110x111x1 - x110x40x1 
= 0

x105x110x3 + x138x110x3 + x109x110x3 + x206x110x3 
- x110x0x3
- x110x111x3 - x110x40x3 
= 0



x105x44x3 + x138x44x3 + x109x44x3 + x206x44x3 + x233x44x3 + x59x44x3 
- x44x0x3
- x44x111x3 - x44x40x3 
= 0



x105x76x3 + x138x76x3 + x109x76x3 + x206x76x3 + x233x76x3 + x59x76x3 + x11x76x3 + x194x76x3 
- x76x0x3
- x76x173x3 - x76x93x3 
= 0


x146x103x2 + x115x103x2 + x79x103x2 + x59x103x2 
- x103x0x2
- x103x236x2 
= 0


x79x273x1 + x109x273x1 + x206x273x1 + x191x273x1 + x84x273x1 
- x273x0x1
- x273x236x1 - x273x111x1 - x273x40x1 
= 0





x105x196x3 + x138x196x3 + x109x196x3 + x206x196x3 + x233x196x3 + x59x196x3 + x11x196x3 + x194x196x3 
- x196x0x3
- x196x173x3 - x196x93x3 
= 0

x231x227x1 + x79x227x1 + x109x227x1 + x206x227x1 + x191x227x1 + x84x227x1 
- x227x0x1
- x227x93x1 - x227x86x1 
= 0

x105x227x3 + x138x227x3 + x109x227x3 + x206x227x3 + x233x227x3 + x59x227x3 + x11x227x3 + x194x227x3 
- x227x0x3
- x227x173x3 - x227x93x3 
= 0

x231x236x1 + x79x236x1 + x109x236x1 + x206x236x1 + x191x236x1 + x84x236x1 + x110x236x1 + x273x236x1 
- x236x0x1

= 0
x231x236x2 + x146x236x2 + x115x236x2 + x79x236x2 + x59x236x2 + x11x236x2 + x191x236x2 + x103x236x2 
- x236x0x2

= 0


x231x111x1 + x79x111x1 + x109x111x1 + x206x111x1 + x191x111x1 + x84x111x1 + x110x111x1 + x273x111x1 
- x111x0x1
- x111x40x1 
= 0

x105x111x3 + x138x111x3 + x230x111x3 + x109x111x3 + x206x111x3 + x233x111x3 + x59x111x3 + x11x111x3 + x194x111x3 + x110x111x3 + x44x111x3 
- x111x0x3
- x111x40x3 
= 0

x231x40x1 + x79x40x1 + x109x40x1 + x206x40x1 + x191x40x1 + x84x40x1 + x110x40x1 + x273x40x1 + x111x40x1 
- x40x0x1

= 0

x105x40x3 + x138x40x3 + x230x40x3 + x109x40x3 + x206x40x3 + x233x40x3 + x59x40x3 + x11x40x3 + x194x40x3 + x110x40x3 + x44x40x3 + x111x40x3 
- x40x0x3

= 0



x105x173x3 + x138x173x3 + x109x173x3 + x206x173x3 + x233x173x3 + x59x173x3 + x11x173x3 + x194x173x3 + x76x173x3 + x196x173x3 + x227x173x3 
- x173x0x3

= 0

x231x93x1 + x79x93x1 + x109x93x1 + x206x93x1 + x191x93x1 + x84x93x1 + x227x93x1 
- x93x0x1
- x93x86x1 
= 0

x105x93x3 + x138x93x3 + x109x93x3 + x206x93x3 + x233x93x3 + x59x93x3 + x11x93x3 + x194x93x3 + x76x93x3 + x196x93x3 + x227x93x3 
- x93x0x3

= 0

x231x86x1 + x79x86x1 + x109x86x1 + x206x86x1 + x191x86x1 + x84x86x1 + x227x86x1 + x93x86x1 
- x86x0x1

= 0



1y79 = 0
1y79 - x115x79x2 = 0
2y230 - x105x230x3 = 0
1y109 = 0
1y109 - x105x109x3 = 0
1y206 = 0
1y206 - x105x206x3 = 0
2y233 - x105x233x3 - x109x233x3 = 0
1y59 - x115x59x2 - x79x59x2 = 0
1y59 - x105x59x3 - x109x59x3 = 0
2y133 = 0
1y240 = 0
1y240 - x105x240x3 - x138x240x3 - x230x240x3 = 0
2y130 = 0
1y238 - x240x238x1 - x130x238x1 = 0
1y238 - x105x238x3 - x138x238x3 - x230x238x3 - x240x238x3 = 0
1y11 - x115x11x2 - x79x11x2 - x59x11x2 = 0
1y11 - x105x11x3 - x109x11x3 - x233x11x3 - x59x11x3 = 0
1y94 - x133x94x1 - x240x94x1 - x130x94x1 - x238x94x1 = 0
1y94 - x115x94x2 = 0
1y222 - x133x222x1 - x240x222x1 - x130x222x1 - x238x222x1 = 0
1y222 - x115x222x2 = 0
1y191 - x79x191x1 - x109x191x1 - x206x191x1 = 0
1y191 - x115x191x2 - x79x191x2 - x59x191x2 = 0
2y194 - x105x194x3 - x138x194x3 - x109x194x3 - x206x194x3 - x233x194x3 - x59x194x3 = 0
2y84 - x79x84x1 - x206x84x1 = 0
2y104 - x146x104x2 - x115x104x2 - x79x104x2 - x59x104x2 - x11x104x2 - x191x104x2 = 0
1y110 - x79x110x1 - x109x110x1 - x206x110x1 - x84x110x1 = 0
1y110 - x105x110x3 - x138x110x3 - x109x110x3 - x206x110x3 = 0
2y44 - x105x44x3 - x138x44x3 - x109x44x3 - x206x44x3 - x233x44x3 - x59x44x3 = 0
2y76 - x105x76x3 - x138x76x3 - x109x76x3 - x206x76x3 - x233x76x3 - x59x76x3 - x11x76x3 - x194x76x3 = 0
2y103 - x146x103x2 - x115x103x2 - x79x103x2 - x59x103x2 = 0
2y273 - x79x273x1 - x109x273x1 - x206x273x1 - x191x273x1 - x84x273x1 = 0
2y196 - x105x196x3 - x138x196x3 - x109x196x3 - x206x196x3 - x233x196x3 - x59x196x3 - x11x196x3 - x194x196x3 = 0
1y227 - x231x227x1 - x79x227x1 - x109x227x1 - x206x227x1 - x191x227x1 - x84x227x1 = 0
1y227 - x105x227x3 - x138x227x3 - x109x227x3 - x206x227x3 - x233x227x3 - x59x227x3 - x11x227x3 - x194x227x3 = 0
1y236 - x231x236x1 - x79x236x1 - x109x236x1 - x206x236x1 - x191x236x1 - x84x236x1 - x110x236x1 - x273x236x1 = 0
1y236 - x231x236x2 - x146x236x2 - x115x236x2 - x79x236x2 - x59x236x2 - x11x236x2 - x191x236x2 - x103x236x2 = 0
1y111 - x231x111x1 - x79x111x1 - x109x111x1 - x206x111x1 - x191x111x1 - x84x111x1 - x110x111x1 - x273x111x1 = 0
1y111 - x105x111x3 - x138x111x3 - x230x111x3 - x109x111x3 - x206x111x3 - x233x111x3 - x59x111x3 - x11x111x3 - x194x111x3 - x110x111x3 - x44x111x3 = 0
1y40 - x231x40x1 - x79x40x1 - x109x40x1 - x206x40x1 - x191x40x1 - x84x40x1 - x110x40x1 - x273x40x1 - x111x40x1 = 0
1y40 - x105x40x3 - x138x40x3 - x230x40x3 - x109x40x3 - x206x40x3 - x233x40x3 - x59x40x3 - x11x40x3 - x194x40x3 - x110x40x3 - x44x40x3 - x111x40x3 = 0
2y173 - x105x173x3 - x138x173x3 - x109x173x3 - x206x173x3 - x233x173x3 - x59x173x3 - x11x173x3 - x194x173x3 - x76x173x3 - x196x173x3 - x227x173x3 = 0
1y93 - x231x93x1 - x79x93x1 - x109x93x1 - x206x93x1 - x191x93x1 - x84x93x1 - x227x93x1 = 0
1y93 - x105x93x3 - x138x93x3 - x109x93x3 - x206x93x3 - x233x93x3 - x59x93x3 - x11x93x3 - x194x93x3 - x76x93x3 - x196x93x3 - x227x93x3 = 0
2y86 - x231x86x1 - x79x86x1 - x109x86x1 - x206x86x1 - x191x86x1 - x84x86x1 - x227x86x1 - x93x86x1 = 0

s231 - s227 + 9.295577z231z227z1 <= 8.17
s231 - s236 + 9.323473z231z236z1 <= 8.17
s231 - s236 + 9.323473z231z236z2 <= 8.17
s231 - s111 + 9.360498z231z111z1 <= 8.17
s231 - s40 + 9.357038z231z40z1 <= 8.17
s231 - s93 + 9.345639z231z93z1 <= 8.17
s231 - s86 + 9.343271z231z86z1 <= 8.17
s146 - s104 + 9.201468z146z104z2 <= 8.07
s146 - s103 + 9.249162z146z103z2 <= 8.07
s146 - s236 + 9.227516z146z236z2 <= 8.07
s105 - s230 + 7.699418z105z230z3 <= 6.27
s105 - s109 + 7.557209z105z109z3 <= 6.27
s105 - s206 + 7.638179z105z206z3 <= 6.27
s105 - s233 + 7.563409z105z233z3 <= 6.27
s105 - s59 + 7.575287z105z59z3 <= 6.27
s105 - s240 + 7.706756z105z240z3 <= 6.27
s105 - s238 + 7.718206z105z238z3 <= 6.27
s105 - s11 + 7.580984z105z11z3 <= 6.27
s105 - s194 + 7.605526z105z194z3 <= 6.27
s105 - s110 + 7.705329z105z110z3 <= 6.27
s105 - s44 + 7.686226z105z44z3 <= 6.27
s105 - s76 + 7.590693z105z76z3 <= 6.27
s105 - s196 + 7.597957z105z196z3 <= 6.27
s105 - s227 + 7.624338z105z227z3 <= 6.27
s105 - s111 + 7.711613z105z111z3 <= 6.27
s105 - s40 + 7.709090z105z40z3 <= 6.27
s105 - s173 + 7.630247z105z173z3 <= 6.27
s105 - s93 + 7.607112z105z93z3 <= 6.27
s115 - s79 + 8.625155z115z79z2 <= 7.39
s115 - s59 + 8.639211z115z59z2 <= 7.39
s115 - s11 + 8.645258z115z11z2 <= 7.39
s115 - s94 + 8.809546z115z94z2 <= 7.39
s115 - s222 + 8.815575z115z222z2 <= 7.39
s115 - s191 + 8.660729z115z191z2 <= 7.39
s115 - s104 + 8.663008z115z104z2 <= 7.39
s115 - s103 + 8.750055z115z103z2 <= 7.39
s115 - s236 + 8.732793z115z236z2 <= 7.39
s138 - s240 + 8.995584z138z240z3 <= 7.59
s138 - s238 + 9.008854z138z238z3 <= 7.59
s138 - s194 + 9.169128z138z194z3 <= 7.59
s138 - s110 + 9.216986z138z110z3 <= 7.59
s138 - s44 + 9.211040z138z44z3 <= 7.59
s138 - s76 + 9.177295z138z76z3 <= 7.59
s138 - s196 + 9.179802z138z196z3 <= 7.59
s138 - s227 + 9.186923z138z227z3 <= 7.59
s138 - s111 + 9.227028z138z111z3 <= 7.59
s138 - s40 + 9.227799z138z40z3 <= 7.59
s138 - s173 + 9.196103z138z173z3 <= 7.59
s138 - s93 + 9.190657z138z93z3 <= 7.59
s79 - s59 + 9.971082z79z59z2 <= 8.95
s79 - s11 + 9.974037z79z11z2 <= 8.95
s79 - s191 + 10.023334z79z191z1 <= 8.95
s79 - s191 + 10.023334z79z191z2 <= 8.95
s79 - s84 + 10.147428z79z84z1 <= 8.95
s79 - s104 + 9.992687z79z104z2 <= 8.95
s79 - s110 + 10.202366z79z110z1 <= 8.95
s79 - s103 + 10.180169z79z103z2 <= 8.95
s79 - s273 + 10.151770z79z273z1 <= 8.95
s79 - s227 + 10.044281z79z227z1 <= 8.95
s79 - s236 + 10.144365z79z236z1 <= 8.95
s79 - s236 + 10.144365z79z236z2 <= 8.95
s79 - s111 + 10.199888z79z111z1 <= 8.95
s79 - s40 + 10.192304z79z40z1 <= 8.95
s79 - s93 + 10.003333z79z93z1 <= 8.95
s79 - s86 + 10.003748z79z86z1 <= 8.95
s230 - s240 + 9.977488z230z240z3 <= 8.95
s230 - s238 + 9.977488z230z238z3 <= 8.95
s230 - s111 + 10.363387z230z111z3 <= 8.95
s230 - s40 + 10.370000z230z40z3 <= 8.95
s109 - s233 + 9.986666z109z233z3 <= 8.98
s109 - s59 + 10.033748z109z59z3 <= 8.98
s109 - s11 + 10.033333z109z11z3 <= 8.98
s109 - s191 + 10.087496z109z191z1 <= 8.98
s109 - s194 + 10.094114z109z194z3 <= 8.98
s109 - s110 + 10.267827z109z110z1 <= 8.98
s109 - s110 + 10.267827z109z110z3 <= 8.98
s109 - s44 + 10.231042z109z44z3 <= 8.98
s109 - s76 + 10.013993z109z76z3 <= 8.98
s109 - s273 + 10.216737z109z273z1 <= 8.98
s109 - s196 + 10.028073z109z196z3 <= 8.98
s109 - s227 + 10.106667z109z227z1 <= 8.98
s109 - s227 + 10.106667z109z227z3 <= 8.98
s109 - s236 + 10.209105z109z236z1 <= 8.98
s109 - s111 + 10.265034z109z111z1 <= 8.98
s109 - s111 + 10.265034z109z111z3 <= 8.98
s109 - s40 + 10.257288z109z40z1 <= 8.98
s109 - s40 + 10.257288z109z40z3 <= 8.98
s109 - s173 + 10.100739z109z173z3 <= 8.98
s109 - s93 + 10.032068z109z93z1 <= 8.98
s109 - s93 + 10.032068z109z93z3 <= 8.98
s109 - s86 + 10.036568z109z86z1 <= 8.98
s206 - s191 + 10.126619z206z191z1 <= 9.01
s206 - s194 + 10.120955z206z194z3 <= 9.01
s206 - s84 + 10.038284z206z84z1 <= 9.01
s206 - s110 + 10.083636z206z110z1 <= 9.01
s206 - s110 + 10.083636z206z110z3 <= 9.01
s206 - s44 + 10.058074z206z44z3 <= 9.01
s206 - s76 + 10.236667z206z76z3 <= 9.01
s206 - s273 + 10.052688z206z273z1 <= 9.01
s206 - s196 + 10.204365z206z196z3 <= 9.01
s206 - s227 + 10.118526z206z227z1 <= 9.01
s206 - s227 + 10.118526z206z227z3 <= 9.01
s206 - s236 + 10.054722z206z236z1 <= 9.01
s206 - s111 + 10.086012z206z111z1 <= 9.01
s206 - s111 + 10.086012z206z111z3 <= 9.01
s206 - s40 + 10.081802z206z40z1 <= 9.01
s206 - s40 + 10.081802z206z40z3 <= 9.01
s206 - s173 + 10.132565z206z173z3 <= 9.01
s206 - s93 + 10.217096z206z93z1 <= 9.01
s206 - s93 + 10.217096z206z93z3 <= 9.01
s206 - s86 + 10.211550z206z86z1 <= 9.01
s233 - s11 + 10.093748z233z11z3 <= 9.04
s233 - s194 + 10.155085z233z194z3 <= 9.04
s233 - s44 + 10.292366z233z44z3 <= 9.04
s233 - s76 + 10.067488z233z76z3 <= 9.04
s233 - s196 + 10.084722z233z196z3 <= 9.04
s233 - s227 + 10.166842z233z227z3 <= 9.04
s233 - s111 + 10.326357z233z111z3 <= 9.04
s233 - s40 + 10.318488z233z40z3 <= 9.04
s233 - s173 + 10.160185z233z173z3 <= 9.04
s233 - s93 + 10.087140z233z93z3 <= 9.04
s59 - s11 + 10.076666z59z11z2 <= 9.07
s59 - s11 + 10.076666z59z11z3 <= 9.07
s59 - s191 + 10.123748z59z191z2 <= 9.07
s59 - s194 + 10.130369z59z194z3 <= 9.07
s59 - s104 + 10.094037z59z104z2 <= 9.07
s59 - s44 + 10.267427z59z44z3 <= 9.07
s59 - s76 + 10.131463z59z76z3 <= 9.07
s59 - s103 + 10.281870z59z103z2 <= 9.07
s59 - s196 + 10.105901z59z196z3 <= 9.07
s59 - s227 + 10.143636z59z227z3 <= 9.07
s59 - s236 + 10.245373z59z236z2 <= 9.07
s59 - s111 + 10.301420z59z111z3 <= 9.07
s59 - s40 + 10.293607z59z40z3 <= 9.07
s59 - s173 + 10.139602z59z173z3 <= 9.07
s59 - s93 + 10.120771z59z93z3 <= 9.07
s133 - s94 + 10.131463z133z94z1 <= 9.07
s133 - s222 + 10.117140z133z222z1 <= 9.07
s240 - s238 + 10.083333z240z238z1 <= 9.07
s240 - s238 + 10.083333z240z238z3 <= 9.07
s240 - s94 + 10.083333z240z94z1 <= 9.07
s240 - s222 + 10.084907z240z222z1 <= 9.07
s130 - s238 + 10.098856z130z238z1 <= 9.08
s130 - s94 + 10.117712z130z94z1 <= 9.08
s130 - s222 + 10.104037z130z222z1 <= 9.08
s238 - s94 + 10.128856z238z94z1 <= 9.11
s238 - s222 + 10.116667z238z222z1 <= 9.11
s11 - s104 + 10.148856z11z104z2 <= 9.13
s11 - s76 + 10.187349z11z76z3 <= 9.13
s11 - s196 + 10.159815z11z196z3 <= 9.13
s11 - s227 + 10.203334z11z227z3 <= 9.13
s11 - s236 + 10.306509z11z236z2 <= 9.13
s11 - s111 + 10.362857z11z111z3 <= 9.13
s11 - s40 + 10.354895z11z40z3 <= 9.13
s11 - s173 + 10.197987z11z173z3 <= 9.13
s11 - s93 + 10.174722z11z93z3 <= 9.13
s191 - s104 + 10.208074z191z104z2 <= 9.16
s191 - s273 + 10.289443z191z273z1 <= 9.16
s191 - s227 + 10.184037z191z227z1 <= 9.16
s191 - s236 + 10.281655z191z236z1 <= 9.16
s191 - s236 + 10.281655z191z236z2 <= 9.16
s191 - s111 + 10.337889z191z111z1 <= 9.16
s191 - s40 + 10.329967z191z40z1 <= 9.16
s191 - s93 + 10.250676z191z93z1 <= 9.16
s191 - s86 + 10.245375z191z86z1 <= 9.16
s194 - s76 + 10.296429z194z76z3 <= 9.18
s194 - s196 + 10.263534z194z196z3 <= 9.18
s194 - s227 + 10.198856z194z227z3 <= 9.18
s194 - s111 + 10.351399z194z111z3 <= 9.18
s194 - s40 + 10.343435z194z40z3 <= 9.18
s194 - s173 + 10.207488z194z173z3 <= 9.18
s194 - s93 + 10.276148z194z93z3 <= 9.18
s84 - s110 + 10.264975z84z110z1 <= 9.21
s84 - s273 + 10.224907z84z273z1 <= 9.21
s84 - s227 + 10.323334z84z227z1 <= 9.21
s84 - s236 + 10.230000z84z236z1 <= 9.21
s84 - s111 + 10.263333z84z111z1 <= 9.21
s84 - s40 + 10.257140z84z40z1 <= 9.21
s84 - s93 + 10.424684z84z93z1 <= 9.21
s84 - s86 + 10.418699z84z86z1 <= 9.21
s110 - s236 + 10.342893z110z236z1 <= 9.28
s110 - s111 + 10.293333z110z111z1 <= 9.28
s110 - s111 + 10.293333z110z111z3 <= 9.28
s110 - s40 + 10.301082z110z40z1 <= 9.28
s110 - s40 + 10.301082z110z40z3 <= 9.28
s44 - s111 + 10.343994z44z111z3 <= 9.31
s44 - s40 + 10.336667z44z40z3 <= 9.31
s76 - s173 + 10.425085z76z173z3 <= 9.31
s76 - s93 + 10.337488z76z93z3 <= 9.31
s103 - s236 + 10.348873z103z236z2 <= 9.31
s273 - s236 + 10.329428z273z236z1 <= 9.32
s273 - s111 + 10.368534z273z111z1 <= 9.32
s273 - s40 + 10.360552z273z40z1 <= 9.32
s196 - s173 + 10.411103z196z173z3 <= 9.33
s196 - s93 + 10.344907z196z93z3 <= 9.33
s227 - s173 + 10.344907z227z173z3 <= 9.33
s227 - s93 + 10.431543z227z93z1 <= 9.33
s227 - s93 + 10.431543z227z93z3 <= 9.33
s227 - s86 + 10.425452z227z86z1 <= 9.33
s111 - s40 + 10.379428z111z40z1 <= 9.37
s111 - s40 + 10.379428z111z40z3 <= 9.37
s93 - s86 + 10.456667z93z86z1 <= 9.45

x231x227x1 - 1z231z227z1 <= 0
x231x236x1 - 1z231z236z1 <= 0
x231x236x2 - 1z231z236z2 <= 0
x231x111x1 - 1z231z111z1 <= 0
x231x40x1 - 1z231z40z1 <= 0
x231x93x1 - 1z231z93z1 <= 0
x231x86x1 - 2z231z86z1 <= 0
x146x104x2 - 2z146z104z2 <= 0
x146x103x2 - 2z146z103z2 <= 0
x146x236x2 - 1z146z236z2 <= 0
x105x230x3 - 2z105z230z3 <= 0
x105x109x3 - 1z105z109z3 <= 0
x105x206x3 - 1z105z206z3 <= 0
x105x233x3 - 2z105z233z3 <= 0
x105x59x3 - 1z105z59z3 <= 0
x105x240x3 - 1z105z240z3 <= 0
x105x238x3 - 1z105z238z3 <= 0
x105x11x3 - 1z105z11z3 <= 0
x105x194x3 - 2z105z194z3 <= 0
x105x110x3 - 1z105z110z3 <= 0
x105x44x3 - 2z105z44z3 <= 0
x105x76x3 - 2z105z76z3 <= 0
x105x196x3 - 2z105z196z3 <= 0
x105x227x3 - 1z105z227z3 <= 0
x105x111x3 - 1z105z111z3 <= 0
x105x40x3 - 1z105z40z3 <= 0
x105x173x3 - 2z105z173z3 <= 0
x105x93x3 - 1z105z93z3 <= 0
x115x79x2 - 1z115z79z2 <= 0
x115x59x2 - 1z115z59z2 <= 0
x115x11x2 - 1z115z11z2 <= 0
x115x94x2 - 1z115z94z2 <= 0
x115x222x2 - 1z115z222z2 <= 0
x115x191x2 - 1z115z191z2 <= 0
x115x104x2 - 2z115z104z2 <= 0
x115x103x2 - 2z115z103z2 <= 0
x115x236x2 - 1z115z236z2 <= 0
x138x240x3 - 1z138z240z3 <= 0
x138x238x3 - 1z138z238z3 <= 0
x138x194x3 - 2z138z194z3 <= 0
x138x110x3 - 1z138z110z3 <= 0
x138x44x3 - 2z138z44z3 <= 0
x138x76x3 - 2z138z76z3 <= 0
x138x196x3 - 2z138z196z3 <= 0
x138x227x3 - 1z138z227z3 <= 0
x138x111x3 - 1z138z111z3 <= 0
x138x40x3 - 1z138z40z3 <= 0
x138x173x3 - 2z138z173z3 <= 0
x138x93x3 - 1z138z93z3 <= 0
x79x59x2 - 1z79z59z2 <= 0
x79x11x2 - 1z79z11z2 <= 0
x79x191x1 - 1z79z191z1 <= 0
x79x191x2 - 1z79z191z2 <= 0
x79x84x1 - 2z79z84z1 <= 0
x79x104x2 - 2z79z104z2 <= 0
x79x110x1 - 1z79z110z1 <= 0
x79x103x2 - 2z79z103z2 <= 0
x79x273x1 - 2z79z273z1 <= 0
x79x227x1 - 1z79z227z1 <= 0
x79x236x1 - 1z79z236z1 <= 0
x79x236x2 - 1z79z236z2 <= 0
x79x111x1 - 1z79z111z1 <= 0
x79x40x1 - 1z79z40z1 <= 0
x79x93x1 - 1z79z93z1 <= 0
x79x86x1 - 2z79z86z1 <= 0
x79x0x1 <= 1
x79x0x2 <= 1
x230x240x3 - 1z230z240z3 <= 0
x230x238x3 - 1z230z238z3 <= 0
x230x111x3 - 1z230z111z3 <= 0
x230x40x3 - 1z230z40z3 <= 0
x230x0x3 <= 2
x109x233x3 - 2z109z233z3 <= 0
x109x59x3 - 1z109z59z3 <= 0
x109x11x3 - 1z109z11z3 <= 0
x109x191x1 - 1z109z191z1 <= 0
x109x194x3 - 2z109z194z3 <= 0
x109x110x1 - 1z109z110z1 <= 0
x109x110x3 - 1z109z110z3 <= 0
x109x44x3 - 2z109z44z3 <= 0
x109x76x3 - 2z109z76z3 <= 0
x109x273x1 - 2z109z273z1 <= 0
x109x196x3 - 2z109z196z3 <= 0
x109x227x1 - 1z109z227z1 <= 0
x109x227x3 - 1z109z227z3 <= 0
x109x236x1 - 1z109z236z1 <= 0
x109x111x1 - 1z109z111z1 <= 0
x109x111x3 - 1z109z111z3 <= 0
x109x40x1 - 1z109z40z1 <= 0
x109x40x3 - 1z109z40z3 <= 0
x109x173x3 - 2z109z173z3 <= 0
x109x93x1 - 1z109z93z1 <= 0
x109x93x3 - 1z109z93z3 <= 0
x109x86x1 - 2z109z86z1 <= 0
x109x0x1 <= 1
x109x0x3 <= 1
x206x191x1 - 1z206z191z1 <= 0
x206x194x3 - 2z206z194z3 <= 0
x206x84x1 - 2z206z84z1 <= 0
x206x110x1 - 1z206z110z1 <= 0
x206x110x3 - 1z206z110z3 <= 0
x206x44x3 - 2z206z44z3 <= 0
x206x76x3 - 2z206z76z3 <= 0
x206x273x1 - 2z206z273z1 <= 0
x206x196x3 - 2z206z196z3 <= 0
x206x227x1 - 1z206z227z1 <= 0
x206x227x3 - 1z206z227z3 <= 0
x206x236x1 - 1z206z236z1 <= 0
x206x111x1 - 1z206z111z1 <= 0
x206x111x3 - 1z206z111z3 <= 0
x206x40x1 - 1z206z40z1 <= 0
x206x40x3 - 1z206z40z3 <= 0
x206x173x3 - 2z206z173z3 <= 0
x206x93x1 - 1z206z93z1 <= 0
x206x93x3 - 1z206z93z3 <= 0
x206x86x1 - 2z206z86z1 <= 0
x206x0x1 <= 1
x206x0x3 <= 1
x233x11x3 - 1z233z11z3 <= 0
x233x194x3 - 2z233z194z3 <= 0
x233x44x3 - 2z233z44z3 <= 0
x233x76x3 - 2z233z76z3 <= 0
x233x196x3 - 2z233z196z3 <= 0
x233x227x3 - 1z233z227z3 <= 0
x233x111x3 - 1z233z111z3 <= 0
x233x40x3 - 1z233z40z3 <= 0
x233x173x3 - 2z233z173z3 <= 0
x233x93x3 - 1z233z93z3 <= 0
x233x0x3 <= 2
x59x11x2 - 1z59z11z2 <= 0
x59x11x3 - 1z59z11z3 <= 0
x59x191x2 - 1z59z191z2 <= 0
x59x194x3 - 2z59z194z3 <= 0
x59x104x2 - 2z59z104z2 <= 0
x59x44x3 - 2z59z44z3 <= 0
x59x76x3 - 2z59z76z3 <= 0
x59x103x2 - 2z59z103z2 <= 0
x59x196x3 - 2z59z196z3 <= 0
x59x227x3 - 1z59z227z3 <= 0
x59x236x2 - 1z59z236z2 <= 0
x59x111x3 - 1z59z111z3 <= 0
x59x40x3 - 1z59z40z3 <= 0
x59x173x3 - 2z59z173z3 <= 0
x59x93x3 - 1z59z93z3 <= 0
x59x0x2 <= 1
x59x0x3 <= 1
x133x94x1 - 1z133z94z1 <= 0
x133x222x1 - 1z133z222z1 <= 0
x133x0x1 <= 2
x240x238x1 - 1z240z238z1 <= 0
x240x238x3 - 1z240z238z3 <= 0
x240x94x1 - 1z240z94z1 <= 0
x240x222x1 - 1z240z222z1 <= 0
x240x0x1 <= 1
x240x0x3 <= 1
x130x238x1 - 1z130z238z1 <= 0
x130x94x1 - 1z130z94z1 <= 0
x130x222x1 - 1z130z222z1 <= 0
x130x0x1 <= 2
x238x94x1 - 1z238z94z1 <= 0
x238x222x1 - 1z238z222z1 <= 0
x238x0x1 <= 1
x238x0x3 <= 1
x11x104x2 - 2z11z104z2 <= 0
x11x76x3 - 2z11z76z3 <= 0
x11x196x3 - 2z11z196z3 <= 0
x11x227x3 - 1z11z227z3 <= 0
x11x236x2 - 1z11z236z2 <= 0
x11x111x3 - 1z11z111z3 <= 0
x11x40x3 - 1z11z40z3 <= 0
x11x173x3 - 2z11z173z3 <= 0
x11x93x3 - 1z11z93z3 <= 0
x11x0x2 <= 1
x11x0x3 <= 1
x94x0x1 <= 1
x94x0x2 <= 1
x222x0x1 <= 1
x222x0x2 <= 1
x191x104x2 - 2z191z104z2 <= 0
x191x273x1 - 2z191z273z1 <= 0
x191x227x1 - 1z191z227z1 <= 0
x191x236x1 - 1z191z236z1 <= 0
x191x236x2 - 1z191z236z2 <= 0
x191x111x1 - 1z191z111z1 <= 0
x191x40x1 - 1z191z40z1 <= 0
x191x93x1 - 1z191z93z1 <= 0
x191x86x1 - 2z191z86z1 <= 0
x191x0x1 <= 1
x191x0x2 <= 1
x194x76x3 - 2z194z76z3 <= 0
x194x196x3 - 2z194z196z3 <= 0
x194x227x3 - 1z194z227z3 <= 0
x194x111x3 - 1z194z111z3 <= 0
x194x40x3 - 1z194z40z3 <= 0
x194x173x3 - 2z194z173z3 <= 0
x194x93x3 - 1z194z93z3 <= 0
x194x0x3 <= 2
x84x110x1 - 1z84z110z1 <= 0
x84x273x1 - 2z84z273z1 <= 0
x84x227x1 - 1z84z227z1 <= 0
x84x236x1 - 1z84z236z1 <= 0
x84x111x1 - 1z84z111z1 <= 0
x84x40x1 - 1z84z40z1 <= 0
x84x93x1 - 1z84z93z1 <= 0
x84x86x1 - 2z84z86z1 <= 0
x84x0x1 <= 2
x104x0x2 <= 2
x110x236x1 - 1z110z236z1 <= 0
x110x111x1 - 1z110z111z1 <= 0
x110x111x3 - 1z110z111z3 <= 0
x110x40x1 - 1z110z40z1 <= 0
x110x40x3 - 1z110z40z3 <= 0
x110x0x1 <= 1
x110x0x3 <= 1
x44x111x3 - 1z44z111z3 <= 0
x44x40x3 - 1z44z40z3 <= 0
x44x0x3 <= 2
x76x173x3 - 2z76z173z3 <= 0
x76x93x3 - 1z76z93z3 <= 0
x76x0x3 <= 2
x103x236x2 - 1z103z236z2 <= 0
x103x0x2 <= 2
x273x236x1 - 1z273z236z1 <= 0
x273x111x1 - 1z273z111z1 <= 0
x273x40x1 - 1z273z40z1 <= 0
x273x0x1 <= 2
x196x173x3 - 2z196z173z3 <= 0
x196x93x3 - 1z196z93z3 <= 0
x196x0x3 <= 2
x227x173x3 - 2z227z173z3 <= 0
x227x93x1 - 1z227z93z1 <= 0
x227x93x3 - 1z227z93z3 <= 0
x227x86x1 - 2z227z86z1 <= 0
x227x0x1 <= 1
x227x0x3 <= 1
x236x0x1 <= 1
x236x0x2 <= 1
x111x40x1 - 1z111z40z1 <= 0
x111x40x3 - 1z111z40z3 <= 0
x111x0x1 <= 1
x111x0x3 <= 1
x40x0x1 <= 1
x40x0x3 <= 1
x173x0x3 <= 2
x93x86x1 - 2z93z86z1 <= 0
x93x0x1 <= 1
x93x0x3 <= 1
x86x0x1 <= 2

s79 - 6.00z115z79z2 >= 0
s230 - 6.00z105z230z3 >= 0
s109 - 6.00z105z109z3 >= 0
s206 - 6.00z105z206z3 >= 0
s233 - 6.00z105z233z3 >= 0
s233 - 6.00z109z233z3 >= 0
s59 - 6.00z105z59z3 >= 0
s59 - 6.00z115z59z2 >= 0
s59 - 6.00z79z59z2 >= 0
s59 - 6.00z109z59z3 >= 0
s240 - 6.00z105z240z3 >= 0
s240 - 6.00z138z240z3 >= 0
s240 - 6.00z230z240z3 >= 0
s238 - 6.00z105z238z3 >= 0
s238 - 6.00z138z238z3 >= 0
s238 - 6.00z230z238z3 >= 0
s238 - 6.00z240z238z1 >= 0
s238 - 6.00z240z238z3 >= 0
s238 - 6.00z130z238z1 >= 0
s11 - 6.00z105z11z3 >= 0
s11 - 6.00z115z11z2 >= 0
s11 - 6.00z79z11z2 >= 0
s11 - 6.00z109z11z3 >= 0
s11 - 6.00z233z11z3 >= 0
s11 - 6.00z59z11z2 >= 0
s11 - 6.00z59z11z3 >= 0
s94 - 6.00z115z94z2 >= 0
s94 - 6.00z133z94z1 >= 0
s94 - 6.00z240z94z1 >= 0
s94 - 6.00z130z94z1 >= 0
s94 - 6.00z238z94z1 >= 0
s222 - 6.00z115z222z2 >= 0
s222 - 6.00z133z222z1 >= 0
s222 - 6.00z240z222z1 >= 0
s222 - 6.00z130z222z1 >= 0
s222 - 6.00z238z222z1 >= 0
s191 - 6.00z115z191z2 >= 0
s191 - 6.00z79z191z1 >= 0
s191 - 6.00z79z191z2 >= 0
s191 - 6.00z109z191z1 >= 0
s191 - 6.00z206z191z1 >= 0
s191 - 6.00z59z191z2 >= 0
s194 - 6.00z105z194z3 >= 0
s194 - 6.00z138z194z3 >= 0
s194 - 6.00z109z194z3 >= 0
s194 - 6.00z206z194z3 >= 0
s194 - 6.00z233z194z3 >= 0
s194 - 6.00z59z194z3 >= 0
s84 - 6.00z79z84z1 >= 0
s84 - 6.00z206z84z1 >= 0
s104 - 6.00z146z104z2 >= 0
s104 - 6.00z115z104z2 >= 0
s104 - 6.00z79z104z2 >= 0
s104 - 6.00z59z104z2 >= 0
s104 - 6.00z11z104z2 >= 0
s104 - 6.00z191z104z2 >= 0
s110 - 6.00z105z110z3 >= 0
s110 - 6.00z138z110z3 >= 0
s110 - 6.00z79z110z1 >= 0
s110 - 6.00z109z110z1 >= 0
s110 - 6.00z109z110z3 >= 0
s110 - 6.00z206z110z1 >= 0
s110 - 6.00z206z110z3 >= 0
s110 - 6.00z84z110z1 >= 0
s44 - 6.00z105z44z3 >= 0
s44 - 6.00z138z44z3 >= 0
s44 - 6.00z109z44z3 >= 0
s44 - 6.00z206z44z3 >= 0
s44 - 6.00z233z44z3 >= 0
s44 - 6.00z59z44z3 >= 0
s76 - 6.00z105z76z3 >= 0
s76 - 6.00z138z76z3 >= 0
s76 - 6.00z109z76z3 >= 0
s76 - 6.00z206z76z3 >= 0
s76 - 6.00z233z76z3 >= 0
s76 - 6.00z59z76z3 >= 0
s76 - 6.00z11z76z3 >= 0
s76 - 6.00z194z76z3 >= 0
s103 - 6.00z146z103z2 >= 0
s103 - 6.00z115z103z2 >= 0
s103 - 6.00z79z103z2 >= 0
s103 - 6.00z59z103z2 >= 0
s273 - 6.00z79z273z1 >= 0
s273 - 6.00z109z273z1 >= 0
s273 - 6.00z206z273z1 >= 0
s273 - 6.00z191z273z1 >= 0
s273 - 6.00z84z273z1 >= 0
s196 - 6.00z105z196z3 >= 0
s196 - 6.00z138z196z3 >= 0
s196 - 6.00z109z196z3 >= 0
s196 - 6.00z206z196z3 >= 0
s196 - 6.00z233z196z3 >= 0
s196 - 6.00z59z196z3 >= 0
s196 - 6.00z11z196z3 >= 0
s196 - 6.00z194z196z3 >= 0
s227 - 6.00z231z227z1 >= 0
s227 - 6.00z105z227z3 >= 0
s227 - 6.00z138z227z3 >= 0
s227 - 6.00z79z227z1 >= 0
s227 - 6.00z109z227z1 >= 0
s227 - 6.00z109z227z3 >= 0
s227 - 6.00z206z227z1 >= 0
s227 - 6.00z206z227z3 >= 0
s227 - 6.00z233z227z3 >= 0
s227 - 6.00z59z227z3 >= 0
s227 - 6.00z11z227z3 >= 0
s227 - 6.00z191z227z1 >= 0
s227 - 6.00z194z227z3 >= 0
s227 - 6.00z84z227z1 >= 0
s236 - 6.00z231z236z1 >= 0
s236 - 6.00z231z236z2 >= 0
s236 - 6.00z146z236z2 >= 0
s236 - 6.00z115z236z2 >= 0
s236 - 6.00z79z236z1 >= 0
s236 - 6.00z79z236z2 >= 0
s236 - 6.00z109z236z1 >= 0
s236 - 6.00z206z236z1 >= 0
s236 - 6.00z59z236z2 >= 0
s236 - 6.00z11z236z2 >= 0
s236 - 6.00z191z236z1 >= 0
s236 - 6.00z191z236z2 >= 0
s236 - 6.00z84z236z1 >= 0
s236 - 6.00z110z236z1 >= 0
s236 - 6.00z103z236z2 >= 0
s236 - 6.00z273z236z1 >= 0
s111 - 6.00z231z111z1 >= 0
s111 - 6.00z105z111z3 >= 0
s111 - 6.00z138z111z3 >= 0
s111 - 6.00z79z111z1 >= 0
s111 - 6.00z230z111z3 >= 0
s111 - 6.00z109z111z1 >= 0
s111 - 6.00z109z111z3 >= 0
s111 - 6.00z206z111z1 >= 0
s111 - 6.00z206z111z3 >= 0
s111 - 6.00z233z111z3 >= 0
s111 - 6.00z59z111z3 >= 0
s111 - 6.00z11z111z3 >= 0
s111 - 6.00z191z111z1 >= 0
s111 - 6.00z194z111z3 >= 0
s111 - 6.00z84z111z1 >= 0
s111 - 6.00z110z111z1 >= 0
s111 - 6.00z110z111z3 >= 0
s111 - 6.00z44z111z3 >= 0
s111 - 6.00z273z111z1 >= 0
s40 - 6.00z231z40z1 >= 0
s40 - 6.00z105z40z3 >= 0
s40 - 6.00z138z40z3 >= 0
s40 - 6.00z79z40z1 >= 0
s40 - 6.00z230z40z3 >= 0
s40 - 6.00z109z40z1 >= 0
s40 - 6.00z109z40z3 >= 0
s40 - 6.00z206z40z1 >= 0
s40 - 6.00z206z40z3 >= 0
s40 - 6.00z233z40z3 >= 0
s40 - 6.00z59z40z3 >= 0
s40 - 6.00z11z40z3 >= 0
s40 - 6.00z191z40z1 >= 0
s40 - 6.00z194z40z3 >= 0
s40 - 6.00z84z40z1 >= 0
s40 - 6.00z110z40z1 >= 0
s40 - 6.00z110z40z3 >= 0
s40 - 6.00z44z40z3 >= 0
s40 - 6.00z273z40z1 >= 0
s40 - 6.00z111z40z1 >= 0
s40 - 6.00z111z40z3 >= 0
s173 - 6.00z105z173z3 >= 0
s173 - 6.00z138z173z3 >= 0
s173 - 6.00z109z173z3 >= 0
s173 - 6.00z206z173z3 >= 0
s173 - 6.00z233z173z3 >= 0
s173 - 6.00z59z173z3 >= 0
s173 - 6.00z11z173z3 >= 0
s173 - 6.00z194z173z3 >= 0
s173 - 6.00z76z173z3 >= 0
s173 - 6.00z196z173z3 >= 0
s173 - 6.00z227z173z3 >= 0
s93 - 6.00z231z93z1 >= 0
s93 - 6.00z105z93z3 >= 0
s93 - 6.00z138z93z3 >= 0
s93 - 6.00z79z93z1 >= 0
s93 - 6.00z109z93z1 >= 0
s93 - 6.00z109z93z3 >= 0
s93 - 6.00z206z93z1 >= 0
s93 - 6.00z206z93z3 >= 0
s93 - 6.00z233z93z3 >= 0
s93 - 6.00z59z93z3 >= 0
s93 - 6.00z11z93z3 >= 0
s93 - 6.00z191z93z1 >= 0
s93 - 6.00z194z93z3 >= 0
s93 - 6.00z84z93z1 >= 0
s93 - 6.00z76z93z3 >= 0
s93 - 6.00z196z93z3 >= 0
s93 - 6.00z227z93z1 >= 0
s93 - 6.00z227z93z3 >= 0
s86 - 6.00z231z86z1 >= 0
s86 - 6.00z79z86z1 >= 0
s86 - 6.00z109z86z1 >= 0
s86 - 6.00z206z86z1 >= 0
s86 - 6.00z191z86z1 >= 0
s86 - 6.00z84z86z1 >= 0
s86 - 6.00z227z86z1 >= 0
s86 - 6.00z93z86z1 >= 0

Bounds
s231 = 8.166134
s146 = 8.072024
s98 = 8.237013
s45 = 8.230803
s258 = 8.586171
s269 = 8.584261
s151 = 8.547064
s83 = 8.637575
s46 = 8.565235
s216 = 8.669752
s38 = 8.675519
s105 = 6.270000
s115 = 7.388700
s138 = 7.593590
7.950000 <= s79 <= 8.950000
7.950000 <= s230 <= 8.950000
7.980000 <= s109 <= 8.980000
8.010000 <= s206 <= 9.010000
8.040000 <= s233 <= 9.040000
8.070000 <= s59 <= 9.070000
8.070000 <= s133 <= 9.070000
8.070000 <= s240 <= 9.070000
8.080000 <= s130 <= 9.080000
8.110000 <= s238 <= 9.110000
8.130000 <= s11 <= 9.130000
8.150000 <= s94 <= 9.150000
8.150000 <= s222 <= 9.150000
8.160000 <= s191 <= 9.160000
8.180000 <= s194 <= 9.180000
8.210000 <= s84 <= 9.210000
8.280000 <= s104 <= 9.280000
8.280000 <= s110 <= 9.280000
8.310000 <= s44 <= 9.310000
8.310000 <= s76 <= 9.310000
8.310000 <= s103 <= 9.310000
8.320000 <= s273 <= 9.320000
8.330000 <= s196 <= 9.330000
8.330000 <= s227 <= 9.330000
8.350000 <= s236 <= 9.350000
8.370000 <= s111 <= 9.370000
8.390000 <= s40 <= 9.390000
8.430000 <= s173 <= 9.430000
8.450000 <= s93 <= 9.450000
8.460000 <= s86 <= 9.460000

General
x231x227x1 x231x236x1 x231x236x2 x231x111x1 x231x40x1 x231x93x1 x231x86x1 
x146x104x2 x146x103x2 x146x236x2 









x105x230x3 x105x109x3 x105x206x3 x105x233x3 x105x59x3 x105x240x3 x105x238x3 x105x11x3 x105x194x3 x105x110x3 x105x44x3 x105x76x3 x105x196x3 x105x227x3 x105x111x3 x105x40x3 x105x173x3 x105x93x3 
x115x79x2 x115x59x2 x115x11x2 x115x94x2 x115x222x2 x115x191x2 x115x104x2 x115x103x2 x115x236x2 
x138x240x3 x138x238x3 x138x194x3 x138x110x3 x138x44x3 x138x76x3 x138x196x3 x138x227x3 x138x111x3 x138x40x3 x138x173x3 x138x93x3 
x79x59x2 x79x11x2 x79x191x1 x79x191x2 x79x84x1 x79x104x2 x79x110x1 x79x103x2 x79x273x1 x79x227x1 x79x236x1 x79x236x2 x79x111x1 x79x40x1 x79x93x1 x79x86x1 x79x0x1 x79x0x2 
x230x240x3 x230x238x3 x230x111x3 x230x40x3 x230x0x3 
x109x233x3 x109x59x3 x109x11x3 x109x191x1 x109x194x3 x109x110x1 x109x110x3 x109x44x3 x109x76x3 x109x273x1 x109x196x3 x109x227x1 x109x227x3 x109x236x1 x109x111x1 x109x111x3 x109x40x1 x109x40x3 x109x173x3 x109x93x1 x109x93x3 x109x86x1 x109x0x1 x109x0x3 
x206x191x1 x206x194x3 x206x84x1 x206x110x1 x206x110x3 x206x44x3 x206x76x3 x206x273x1 x206x196x3 x206x227x1 x206x227x3 x206x236x1 x206x111x1 x206x111x3 x206x40x1 x206x40x3 x206x173x3 x206x93x1 x206x93x3 x206x86x1 x206x0x1 x206x0x3 
x233x11x3 x233x194x3 x233x44x3 x233x76x3 x233x196x3 x233x227x3 x233x111x3 x233x40x3 x233x173x3 x233x93x3 x233x0x3 
x59x11x2 x59x11x3 x59x191x2 x59x194x3 x59x104x2 x59x44x3 x59x76x3 x59x103x2 x59x196x3 x59x227x3 x59x236x2 x59x111x3 x59x40x3 x59x173x3 x59x93x3 x59x0x2 x59x0x3 
x133x94x1 x133x222x1 x133x0x1 
x240x238x1 x240x238x3 x240x94x1 x240x222x1 x240x0x1 x240x0x3 
x130x238x1 x130x94x1 x130x222x1 x130x0x1 
x238x94x1 x238x222x1 x238x0x1 x238x0x3 
x11x104x2 x11x76x3 x11x196x3 x11x227x3 x11x236x2 x11x111x3 x11x40x3 x11x173x3 x11x93x3 x11x0x2 x11x0x3 
x94x0x1 x94x0x2 
x222x0x1 x222x0x2 
x191x104x2 x191x273x1 x191x227x1 x191x236x1 x191x236x2 x191x111x1 x191x40x1 x191x93x1 x191x86x1 x191x0x1 x191x0x2 
x194x76x3 x194x196x3 x194x227x3 x194x111x3 x194x40x3 x194x173x3 x194x93x3 x194x0x3 
x84x110x1 x84x273x1 x84x227x1 x84x236x1 x84x111x1 x84x40x1 x84x93x1 x84x86x1 x84x0x1 
x104x0x2 
x110x236x1 x110x111x1 x110x111x3 x110x40x1 x110x40x3 x110x0x1 x110x0x3 
x44x111x3 x44x40x3 x44x0x3 
x76x173x3 x76x93x3 x76x0x3 
x103x236x2 x103x0x2 
x273x236x1 x273x111x1 x273x40x1 x273x0x1 
x196x173x3 x196x93x3 x196x0x3 
x227x173x3 x227x93x1 x227x93x3 x227x86x1 x227x0x1 x227x0x3 
x236x0x1 x236x0x2 
x111x40x1 x111x40x3 x111x0x1 x111x0x3 
x40x0x1 x40x0x3 
x173x0x3 
x93x86x1 x93x0x1 x93x0x3 
x86x0x1 

Binaries
y79 y230 y109 y206 y233 y59 y133 y240 y130 y238 y11 y94 y222 y191 y194 y84 y104 y110 y44 y76 y103 y273 y196 y227 y236 y111 y40 y173 y93 y86 
z231z227z1 z231z236z1 z231z236z2 z231z111z1 z231z40z1 z231z93z1 z231z86z1 
z146z104z2 z146z103z2 z146z236z2 









z105z230z3 z105z109z3 z105z206z3 z105z233z3 z105z59z3 z105z240z3 z105z238z3 z105z11z3 z105z194z3 z105z110z3 z105z44z3 z105z76z3 z105z196z3 z105z227z3 z105z111z3 z105z40z3 z105z173z3 z105z93z3 
z115z79z2 z115z59z2 z115z11z2 z115z94z2 z115z222z2 z115z191z2 z115z104z2 z115z103z2 z115z236z2 
z138z240z3 z138z238z3 z138z194z3 z138z110z3 z138z44z3 z138z76z3 z138z196z3 z138z227z3 z138z111z3 z138z40z3 z138z173z3 z138z93z3 
z79z59z2 z79z11z2 z79z191z1 z79z191z2 z79z84z1 z79z104z2 z79z110z1 z79z103z2 z79z273z1 z79z227z1 z79z236z1 z79z236z2 z79z111z1 z79z40z1 z79z93z1 z79z86z1 
z230z240z3 z230z238z3 z230z111z3 z230z40z3 
z109z233z3 z109z59z3 z109z11z3 z109z191z1 z109z194z3 z109z110z1 z109z110z3 z109z44z3 z109z76z3 z109z273z1 z109z196z3 z109z227z1 z109z227z3 z109z236z1 z109z111z1 z109z111z3 z109z40z1 z109z40z3 z109z173z3 z109z93z1 z109z93z3 z109z86z1 
z206z191z1 z206z194z3 z206z84z1 z206z110z1 z206z110z3 z206z44z3 z206z76z3 z206z273z1 z206z196z3 z206z227z1 z206z227z3 z206z236z1 z206z111z1 z206z111z3 z206z40z1 z206z40z3 z206z173z3 z206z93z1 z206z93z3 z206z86z1 
z233z11z3 z233z194z3 z233z44z3 z233z76z3 z233z196z3 z233z227z3 z233z111z3 z233z40z3 z233z173z3 z233z93z3 
z59z11z2 z59z11z3 z59z191z2 z59z194z3 z59z104z2 z59z44z3 z59z76z3 z59z103z2 z59z196z3 z59z227z3 z59z236z2 z59z111z3 z59z40z3 z59z173z3 z59z93z3 
z133z94z1 z133z222z1 
z240z238z1 z240z238z3 z240z94z1 z240z222z1 
z130z238z1 z130z94z1 z130z222z1 
z238z94z1 z238z222z1 
z11z104z2 z11z76z3 z11z196z3 z11z227z3 z11z236z2 z11z111z3 z11z40z3 z11z173z3 z11z93z3 


z191z104z2 z191z273z1 z191z227z1 z191z236z1 z191z236z2 z191z111z1 z191z40z1 z191z93z1 z191z86z1 
z194z76z3 z194z196z3 z194z227z3 z194z111z3 z194z40z3 z194z173z3 z194z93z3 
z84z110z1 z84z273z1 z84z227z1 z84z236z1 z84z111z1 z84z40z1 z84z93z1 z84z86z1 

z110z236z1 z110z111z1 z110z111z3 z110z40z1 z110z40z3 
z44z111z3 z44z40z3 
z76z173z3 z76z93z3 
z103z236z2 
z273z236z1 z273z111z1 z273z40z1 
z196z173z3 z196z93z3 
z227z173z3 z227z93z1 z227z93z3 z227z86z1 

z111z40z1 z111z40z3 


z93z86z1 


End